40
    97    16    62    14    29    41    26    97    26    62    36    20    43    19    99    89    64     7    99    12     2    73     2     1    98    17    49    69    18    94    60    35    61     9    33    20    51    23    44    46
    10    10     7     8    10     1     8     9     8     3     6     2     6    10     9     1     5    10     9     7     4     8     9     6     1     5    10     2     2     8     1     2     2     9     8     1     4     8    10     8
   553  1235   689   933   678  1103   595   145   126   988   741  1137  1095  1150   537   118   962   956   754  1100   611  1301   941  1056   768   686   337  1151   475   464   913   357   465   914  1257  1046   221   851  1011  1192
